predicate alldifferentChoco(array [int] of var int: x);
array [1..3] of int: X_INTRODUCED_12_ = [1,-1,-1];
var 1..1: iunnamed_242;
var 1..1: iunnamed_271;
var 1..1: iunnamed_300;
var 1..1: iunnamed_329;
var 1..1: iunnamed_358;
var 1..1: iunnamed_387;
var 1..1: iunnamed_416;
var 1..1: iunnamed_445;
var 1..1: iunnamed_474;
var 1..1: iunnamed_503;
var 1..1: iunnamed_532;
var 1..1: iunnamed_561;
var 1..1: iunnamed_590;
var 1..1: ii_2025;
var 1..1: itotal_2044;
var 1..1: ii_2045;
var 0..10: Add_2046:: is_defined_var;
var 0..10: total_2064:: output_var:: is_defined_var;
var 1..1: itotal_2064;
var 1..1: ii_2065;
var 0..15: Add_2066:: is_defined_var;
var 0..15: total_2084:: output_var:: is_defined_var;
var 1..1: itotal_2084;
var 1..1: ii_2085;
var 0..20: Add_2086:: is_defined_var;
var 0..20: total_2104:: output_var:: is_defined_var;
var 1..1: itotal_2104;
var 1..1: ii_2105;
var 0..25: Add_2106:: is_defined_var;
var 0..25: total_2124:: output_var:: is_defined_var;
var 1..1: itotal_2124;
var 1..1: ii_2125;
var 0..30: Add_2126:: is_defined_var;
var 0..30: total_2144:: output_var:: is_defined_var;
var 1..1: itotal_2144;
var 1..1: ii_2145;
var 0..35: Add_2146:: is_defined_var;
var 0..35: total_2164:: output_var:: is_defined_var;
var 1..1: itotal_2164;
var 1..1: ii_2165;
var 0..40: Add_2166:: is_defined_var;
var 0..40: total_2184:: output_var:: is_defined_var;
var 1..1: itotal_2184;
var 0..5: i_2185:: output_var;
var 1..1: ii_2185;
var 0..45: Add_2186:: is_defined_var;
var 0..45: total_2204:: output_var:: is_defined_var;
var 1..1: itotal_2204;
var 0..5: i_2205:: output_var;
var 1..1: ii_2205;
var 0..50: Add_2206:: is_defined_var;
var 0..50: total_2224:: output_var:: is_defined_var;
var 1..1: itotal_2224;
var 0..5: i_2225:: output_var;
var 1..1: ii_2225;
var 0..55: Add_2226:: is_defined_var;
var 0..55: total_2244:: output_var:: is_defined_var;
var 1..1: itotal_2244;
var 0..5: i_2245:: output_var;
var 1..1: ii_2245;
var 0..60: Add_2246:: is_defined_var;
var 0..60: total_2264:: output_var:: is_defined_var;
var 1..1: itotal_2264;
var 0..5: i_2265:: output_var;
var 1..1: ii_2265;
var 0..65: Add_2266:: is_defined_var;
var 1..1: itotal_2270;
var 0..65: obj_max:: is_defined_var:: output_var;
var -65..0: objective:: is_defined_var;
var 1..1: iobjective;
var 0..5: grouptotal_647:: output_var;
var 1..1: igrouptotal_647;
var 0..10: Add_658:: is_defined_var;
var 0..10: grouptotal_674:: output_var:: is_defined_var;
var 1..1: igrouptotal_674;
var 0..15: Add_685:: is_defined_var;
var 0..15: grouptotal_701:: output_var:: is_defined_var;
var 1..1: igrouptotal_701;
var 0..20: Add_712:: is_defined_var;
var 0..20: grouptotal_728:: output_var:: is_defined_var;
var 1..1: igrouptotal_728;
var 0..25: Add_739:: is_defined_var;
var 0..25: grouptotal_755:: output_var:: is_defined_var;
var 1..1: igrouptotal_755;
var 0..30: Add_766:: is_defined_var;
var 0..30: grouptotal_781:: output_var:: is_defined_var;
var 1..1: igrouptotal_781;
var bool: Greater_783:: is_defined_var;
var 0..5: grouptotal_818:: output_var;
var 1..1: igrouptotal_818;
var 0..10: Add_829:: is_defined_var;
var 0..10: grouptotal_845:: output_var:: is_defined_var;
var 1..1: igrouptotal_845;
var 0..15: Add_856:: is_defined_var;
var 0..15: grouptotal_872:: output_var:: is_defined_var;
var 1..1: igrouptotal_872;
var 0..20: Add_883:: is_defined_var;
var 0..20: grouptotal_899:: output_var:: is_defined_var;
var 1..1: igrouptotal_899;
var 0..25: Add_910:: is_defined_var;
var 0..25: grouptotal_926:: output_var:: is_defined_var;
var 1..1: igrouptotal_926;
var 0..30: Add_937:: is_defined_var;
var 0..30: grouptotal_952:: output_var:: is_defined_var;
var 1..1: igrouptotal_952;
var bool: Greater_954:: is_defined_var;
var 0..5: grouptotal_989:: output_var;
var 1..1: igrouptotal_989;
var 0..10: Add_1000:: is_defined_var;
var 0..10: grouptotal_1016:: output_var:: is_defined_var;
var 1..1: igrouptotal_1016;
var 0..15: Add_1027:: is_defined_var;
var 0..15: grouptotal_1043:: output_var:: is_defined_var;
var 1..1: igrouptotal_1043;
var 0..20: Add_1054:: is_defined_var;
var 0..20: grouptotal_1070:: output_var:: is_defined_var;
var 1..1: igrouptotal_1070;
var 0..25: Add_1081:: is_defined_var;
var 0..25: grouptotal_1097:: output_var:: is_defined_var;
var 1..1: igrouptotal_1097;
var 0..30: Add_1108:: is_defined_var;
var 0..30: grouptotal_1123:: output_var:: is_defined_var;
var 1..1: igrouptotal_1123;
var bool: Greater_1125:: is_defined_var;
var 0..5: grouptotal_1160:: output_var;
var 1..1: igrouptotal_1160;
var 0..10: Add_1171:: is_defined_var;
var 0..10: grouptotal_1187:: output_var:: is_defined_var;
var 1..1: igrouptotal_1187;
var 0..15: Add_1198:: is_defined_var;
var 0..15: grouptotal_1214:: output_var:: is_defined_var;
var 1..1: igrouptotal_1214;
var 0..20: Add_1225:: is_defined_var;
var 0..20: grouptotal_1241:: output_var:: is_defined_var;
var 1..1: igrouptotal_1241;
var 0..25: Add_1252:: is_defined_var;
var 0..25: grouptotal_1268:: output_var:: is_defined_var;
var 1..1: igrouptotal_1268;
var 0..30: Add_1279:: is_defined_var;
var 0..30: grouptotal_1294:: output_var:: is_defined_var;
var 1..1: igrouptotal_1294;
var bool: Greater_1296:: is_defined_var;
var 0..5: grouptotal_1331:: output_var;
var 1..1: igrouptotal_1331;
var 0..10: Add_1342:: is_defined_var;
var 0..10: grouptotal_1358:: output_var:: is_defined_var;
var 1..1: igrouptotal_1358;
var 0..15: Add_1369:: is_defined_var;
var 0..15: grouptotal_1385:: output_var:: is_defined_var;
var 1..1: igrouptotal_1385;
var 0..20: Add_1396:: is_defined_var;
var 0..20: grouptotal_1412:: output_var:: is_defined_var;
var 1..1: igrouptotal_1412;
var 0..25: Add_1423:: is_defined_var;
var 0..25: grouptotal_1439:: output_var:: is_defined_var;
var 1..1: igrouptotal_1439;
var 0..30: Add_1450:: is_defined_var;
var 0..30: grouptotal_1465:: output_var:: is_defined_var;
var 1..1: igrouptotal_1465;
var bool: Greater_1467:: is_defined_var;
var 0..5: grouptotal_1502:: output_var;
var 1..1: igrouptotal_1502;
var 0..10: Add_1513:: is_defined_var;
var 0..10: grouptotal_1529:: output_var:: is_defined_var;
var 1..1: igrouptotal_1529;
var 0..15: Add_1540:: is_defined_var;
var 0..15: grouptotal_1556:: output_var:: is_defined_var;
var 1..1: igrouptotal_1556;
var 0..20: Add_1567:: is_defined_var;
var 0..20: grouptotal_1583:: output_var:: is_defined_var;
var 1..1: igrouptotal_1583;
var 0..25: Add_1594:: is_defined_var;
var 0..25: grouptotal_1610:: output_var:: is_defined_var;
var 1..1: igrouptotal_1610;
var 0..30: Add_1621:: is_defined_var;
var 0..30: grouptotal_1636:: output_var:: is_defined_var;
var 1..1: igrouptotal_1636;
var bool: Greater_1638:: is_defined_var;
var 0..5: grouptotal_1673:: output_var;
var 1..1: igrouptotal_1673;
var 0..10: Add_1684:: is_defined_var;
var 0..10: grouptotal_1700:: output_var:: is_defined_var;
var 1..1: igrouptotal_1700;
var 0..15: Add_1711:: is_defined_var;
var 0..15: grouptotal_1727:: output_var:: is_defined_var;
var 1..1: igrouptotal_1727;
var 0..20: Add_1738:: is_defined_var;
var 0..20: grouptotal_1754:: output_var:: is_defined_var;
var 1..1: igrouptotal_1754;
var 0..25: Add_1765:: is_defined_var;
var 0..25: grouptotal_1781:: output_var:: is_defined_var;
var 1..1: igrouptotal_1781;
var 0..30: Add_1792:: is_defined_var;
var 0..30: grouptotal_1807:: output_var:: is_defined_var;
var 1..1: igrouptotal_1807;
var bool: Greater_1809:: is_defined_var;
var 0..5: grouptotal_1844:: output_var;
var 1..1: igrouptotal_1844;
var 0..10: Add_1855:: is_defined_var;
var 0..10: grouptotal_1871:: output_var:: is_defined_var;
var 1..1: igrouptotal_1871;
var 0..15: Add_1882:: is_defined_var;
var 0..15: grouptotal_1898:: output_var:: is_defined_var;
var 1..1: igrouptotal_1898;
var 0..20: Add_1909:: is_defined_var;
var 0..20: grouptotal_1925:: output_var:: is_defined_var;
var 1..1: igrouptotal_1925;
var 0..25: Add_1936:: is_defined_var;
var 0..25: grouptotal_1952:: output_var:: is_defined_var;
var 1..1: igrouptotal_1952;
var 0..30: Add_1963:: is_defined_var;
var 0..30: grouptotal_1978:: output_var:: is_defined_var;
var 1..1: igrouptotal_1978;
var bool: Greater_1980:: is_defined_var;
var {2,6}: X_INTRODUCED_3_;
var {1,3}: X_INTRODUCED_4_;
var {4,9}: X_INTRODUCED_5_;
var {3,5}: X_INTRODUCED_6_;
var {6,8}: X_INTRODUCED_7_;
var {5,7}: X_INTRODUCED_8_;
var {4,8}: X_INTRODUCED_9_;
var {7,9}: X_INTRODUCED_10_;
var bool: X_INTRODUCED_13_ ::var_is_introduced :: is_defined_var;
var bool: X_INTRODUCED_15_ ::var_is_introduced :: is_defined_var;
var bool: X_INTRODUCED_17_ ::var_is_introduced :: is_defined_var;
var bool: X_INTRODUCED_19_ ::var_is_introduced :: is_defined_var;
var bool: X_INTRODUCED_21_ ::var_is_introduced :: is_defined_var;
var bool: X_INTRODUCED_23_ ::var_is_introduced :: is_defined_var;
var bool: X_INTRODUCED_25_ ::var_is_introduced :: is_defined_var;
var bool: X_INTRODUCED_27_ ::var_is_introduced :: is_defined_var;
array [1..9] of var int: prev:: output_array([1..9]) = [2,X_INTRODUCED_3_,X_INTRODUCED_4_,X_INTRODUCED_5_,X_INTRODUCED_6_,X_INTRODUCED_7_,X_INTRODUCED_8_,X_INTRODUCED_9_,X_INTRODUCED_10_];
array [1..243] of var int: X_INTRODUCED_29_ ::var_is_introduced  = [grouptotal_647,grouptotal_647,1,grouptotal_818,grouptotal_818,1,grouptotal_989,grouptotal_989,1,grouptotal_1160,grouptotal_1160,1,grouptotal_1331,grouptotal_1331,1,grouptotal_1502,grouptotal_1502,1,grouptotal_1673,grouptotal_1673,1,grouptotal_1844,grouptotal_1844,1,i_2185,i_2185,1,i_2205,i_2205,1,i_2225,i_2225,1,i_2245,i_2245,1,i_2265,i_2265,1,grouptotal_647,1,grouptotal_647,grouptotal_647,1,grouptotal_818,1,Add_2046,total_2064,1,grouptotal_989,1,Add_2066,total_2084,1,grouptotal_1160,1,Add_2086,total_2104,1,grouptotal_1331,1,Add_2106,total_2124,1,grouptotal_1502,1,Add_2126,total_2144,1,grouptotal_1673,1,Add_2146,total_2164,1,grouptotal_1844,1,Add_2166,total_2184,1,i_2185,1,Add_2186,total_2204,1,i_2205,1,Add_2206,total_2224,1,i_2225,1,Add_2226,total_2244,1,i_2245,1,Add_2246,total_2264,1,i_2265,1,Add_2266,obj_max,1,obj_max,objective,1,grouptotal_647,1,Add_658,grouptotal_674,1,Add_685,grouptotal_701,1,Add_712,grouptotal_728,1,Add_739,grouptotal_755,1,Add_766,grouptotal_781,1,grouptotal_818,1,Add_829,grouptotal_845,1,Add_856,grouptotal_872,1,Add_883,grouptotal_899,1,Add_910,grouptotal_926,1,Add_937,grouptotal_952,1,grouptotal_989,1,Add_1000,grouptotal_1016,1,Add_1027,grouptotal_1043,1,Add_1054,grouptotal_1070,1,Add_1081,grouptotal_1097,1,Add_1108,grouptotal_1123,1,grouptotal_1160,1,Add_1171,grouptotal_1187,1,Add_1198,grouptotal_1214,1,Add_1225,grouptotal_1241,1,Add_1252,grouptotal_1268,1,Add_1279,grouptotal_1294,1,grouptotal_1331,1,Add_1342,grouptotal_1358,1,Add_1369,grouptotal_1385,1,Add_1396,grouptotal_1412,1,Add_1423,grouptotal_1439,1,Add_1450,grouptotal_1465,1,grouptotal_1502,1,Add_1513,grouptotal_1529,1,Add_1540,grouptotal_1556,1,Add_1567,grouptotal_1583,1,Add_1594,grouptotal_1610,1,Add_1621,grouptotal_1636,1,grouptotal_1673,1,Add_1684,grouptotal_1700,1,Add_1711,grouptotal_1727,1,Add_1738,grouptotal_1754,1,Add_1765,grouptotal_1781,1,Add_1792,grouptotal_1807,1,grouptotal_1844,1,Add_1855,grouptotal_1871,1,Add_1882,grouptotal_1898,1,Add_1909,grouptotal_1925,1,Add_1936,grouptotal_1952,1,Add_1963,grouptotal_1978,1];
array [1..13] of var int: X_INTRODUCED_30_ ::var_is_introduced  = [grouptotal_647,grouptotal_818,grouptotal_989,grouptotal_1160,grouptotal_1331,grouptotal_1502,grouptotal_1673,grouptotal_1844,i_2185,i_2205,i_2225,i_2245,i_2265];
constraint int_lin_eq(X_INTRODUCED_12_,[total_2064,grouptotal_647,grouptotal_818],0):: defines_var(total_2064);
constraint int_lin_eq(X_INTRODUCED_12_,[total_2084,total_2064,grouptotal_989],0):: defines_var(total_2084);
constraint int_lin_eq(X_INTRODUCED_12_,[total_2104,total_2084,grouptotal_1160],0):: defines_var(total_2104);
constraint int_lin_eq(X_INTRODUCED_12_,[total_2124,total_2104,grouptotal_1331],0):: defines_var(total_2124);
constraint int_lin_eq(X_INTRODUCED_12_,[total_2144,total_2124,grouptotal_1502],0):: defines_var(total_2144);
constraint int_lin_eq(X_INTRODUCED_12_,[total_2164,total_2144,grouptotal_1673],0):: defines_var(total_2164);
constraint int_lin_eq(X_INTRODUCED_12_,[total_2184,total_2164,grouptotal_1844],0):: defines_var(total_2184);
constraint int_lin_eq(X_INTRODUCED_12_,[total_2204,total_2184,i_2185],0):: defines_var(total_2204);
constraint int_lin_eq(X_INTRODUCED_12_,[total_2224,total_2204,i_2205],0):: defines_var(total_2224);
constraint int_lin_eq(X_INTRODUCED_12_,[total_2244,total_2224,i_2225],0):: defines_var(total_2244);
constraint int_lin_eq(X_INTRODUCED_12_,[total_2264,total_2244,i_2245],0):: defines_var(total_2264);
constraint int_lin_eq(X_INTRODUCED_12_,[obj_max,total_2264,i_2265],0):: defines_var(obj_max);
constraint int_lin_eq(X_INTRODUCED_12_,[grouptotal_674,grouptotal_647,grouptotal_818],0):: defines_var(grouptotal_674);
constraint int_lin_eq(X_INTRODUCED_12_,[grouptotal_701,grouptotal_674,grouptotal_989],0):: defines_var(grouptotal_701);
constraint int_lin_eq(X_INTRODUCED_12_,[grouptotal_728,grouptotal_701,grouptotal_1160],0):: defines_var(grouptotal_728);
constraint int_lin_eq(X_INTRODUCED_12_,[grouptotal_755,grouptotal_728,grouptotal_1331],0):: defines_var(grouptotal_755);
constraint int_lin_eq(X_INTRODUCED_12_,[grouptotal_781,grouptotal_755,grouptotal_1502],0):: defines_var(grouptotal_781);
constraint int_lin_eq(X_INTRODUCED_12_,[grouptotal_845,grouptotal_818,grouptotal_989],0):: defines_var(grouptotal_845);
constraint int_lin_eq(X_INTRODUCED_12_,[grouptotal_872,grouptotal_845,grouptotal_1160],0):: defines_var(grouptotal_872);
constraint int_lin_eq(X_INTRODUCED_12_,[grouptotal_899,grouptotal_872,grouptotal_1331],0):: defines_var(grouptotal_899);
constraint int_lin_eq(X_INTRODUCED_12_,[grouptotal_926,grouptotal_899,grouptotal_1502],0):: defines_var(grouptotal_926);
constraint int_lin_eq(X_INTRODUCED_12_,[grouptotal_952,grouptotal_926,grouptotal_1673],0):: defines_var(grouptotal_952);
constraint int_lin_eq(X_INTRODUCED_12_,[grouptotal_1016,grouptotal_989,grouptotal_1160],0):: defines_var(grouptotal_1016);
constraint int_lin_eq(X_INTRODUCED_12_,[grouptotal_1043,grouptotal_1016,grouptotal_1331],0):: defines_var(grouptotal_1043);
constraint int_lin_eq(X_INTRODUCED_12_,[grouptotal_1070,grouptotal_1043,grouptotal_1502],0):: defines_var(grouptotal_1070);
constraint int_lin_eq(X_INTRODUCED_12_,[grouptotal_1097,grouptotal_1070,grouptotal_1673],0):: defines_var(grouptotal_1097);
constraint int_lin_eq(X_INTRODUCED_12_,[grouptotal_1123,grouptotal_1097,grouptotal_1844],0):: defines_var(grouptotal_1123);
constraint int_lin_eq(X_INTRODUCED_12_,[grouptotal_1187,grouptotal_1160,grouptotal_1331],0):: defines_var(grouptotal_1187);
constraint int_lin_eq(X_INTRODUCED_12_,[grouptotal_1214,grouptotal_1187,grouptotal_1502],0):: defines_var(grouptotal_1214);
constraint int_lin_eq(X_INTRODUCED_12_,[grouptotal_1241,grouptotal_1214,grouptotal_1673],0):: defines_var(grouptotal_1241);
constraint int_lin_eq(X_INTRODUCED_12_,[grouptotal_1268,grouptotal_1241,grouptotal_1844],0):: defines_var(grouptotal_1268);
constraint int_lin_eq(X_INTRODUCED_12_,[grouptotal_1294,grouptotal_1268,i_2185],0):: defines_var(grouptotal_1294);
constraint int_lin_eq(X_INTRODUCED_12_,[grouptotal_1358,grouptotal_1331,grouptotal_1502],0):: defines_var(grouptotal_1358);
constraint int_lin_eq(X_INTRODUCED_12_,[grouptotal_1385,grouptotal_1358,grouptotal_1673],0):: defines_var(grouptotal_1385);
constraint int_lin_eq(X_INTRODUCED_12_,[grouptotal_1412,grouptotal_1385,grouptotal_1844],0):: defines_var(grouptotal_1412);
constraint int_lin_eq(X_INTRODUCED_12_,[grouptotal_1439,grouptotal_1412,i_2185],0):: defines_var(grouptotal_1439);
constraint int_lin_eq(X_INTRODUCED_12_,[grouptotal_1465,grouptotal_1439,i_2205],0):: defines_var(grouptotal_1465);
constraint int_lin_eq(X_INTRODUCED_12_,[grouptotal_1529,grouptotal_1502,grouptotal_1673],0):: defines_var(grouptotal_1529);
constraint int_lin_eq(X_INTRODUCED_12_,[grouptotal_1556,grouptotal_1529,grouptotal_1844],0):: defines_var(grouptotal_1556);
constraint int_lin_eq(X_INTRODUCED_12_,[grouptotal_1583,grouptotal_1556,i_2185],0):: defines_var(grouptotal_1583);
constraint int_lin_eq(X_INTRODUCED_12_,[grouptotal_1610,grouptotal_1583,i_2205],0):: defines_var(grouptotal_1610);
constraint int_lin_eq(X_INTRODUCED_12_,[grouptotal_1636,grouptotal_1610,i_2225],0):: defines_var(grouptotal_1636);
constraint int_lin_eq(X_INTRODUCED_12_,[grouptotal_1700,grouptotal_1673,grouptotal_1844],0):: defines_var(grouptotal_1700);
constraint int_lin_eq(X_INTRODUCED_12_,[grouptotal_1727,grouptotal_1700,i_2185],0):: defines_var(grouptotal_1727);
constraint int_lin_eq(X_INTRODUCED_12_,[grouptotal_1754,grouptotal_1727,i_2205],0):: defines_var(grouptotal_1754);
constraint int_lin_eq(X_INTRODUCED_12_,[grouptotal_1781,grouptotal_1754,i_2225],0):: defines_var(grouptotal_1781);
constraint int_lin_eq(X_INTRODUCED_12_,[grouptotal_1807,grouptotal_1781,i_2245],0):: defines_var(grouptotal_1807);
constraint int_lin_eq(X_INTRODUCED_12_,[grouptotal_1871,grouptotal_1844,i_2185],0):: defines_var(grouptotal_1871);
constraint int_lin_eq(X_INTRODUCED_12_,[grouptotal_1898,grouptotal_1871,i_2205],0):: defines_var(grouptotal_1898);
constraint int_lin_eq(X_INTRODUCED_12_,[grouptotal_1925,grouptotal_1898,i_2225],0):: defines_var(grouptotal_1925);
constraint int_lin_eq(X_INTRODUCED_12_,[grouptotal_1952,grouptotal_1925,i_2245],0):: defines_var(grouptotal_1952);
constraint int_lin_eq(X_INTRODUCED_12_,[grouptotal_1978,grouptotal_1952,i_2265],0):: defines_var(grouptotal_1978);
constraint alldifferentChoco(prev);
constraint bool_clause([X_INTRODUCED_13_],[Greater_783]);
constraint bool_clause([X_INTRODUCED_15_],[Greater_954]);
constraint bool_clause([X_INTRODUCED_17_],[Greater_1125]);
constraint bool_clause([X_INTRODUCED_19_],[Greater_1296]);
constraint bool_clause([X_INTRODUCED_21_],[Greater_1467]);
constraint bool_clause([X_INTRODUCED_23_],[Greater_1638]);
constraint bool_clause([X_INTRODUCED_25_],[Greater_1809]);
constraint bool_clause([X_INTRODUCED_27_],[Greater_1980]);
constraint int_lin_eq([1,1,-1],[grouptotal_647,grouptotal_818,Add_2046],0):: defines_var(Add_2046);
constraint int_lin_eq([1,1,-1],[total_2064,grouptotal_989,Add_2066],0):: defines_var(Add_2066);
constraint int_lin_eq([1,1,-1],[total_2084,grouptotal_1160,Add_2086],0):: defines_var(Add_2086);
constraint int_lin_eq([1,1,-1],[total_2104,grouptotal_1331,Add_2106],0):: defines_var(Add_2106);
constraint int_lin_eq([1,1,-1],[total_2124,grouptotal_1502,Add_2126],0):: defines_var(Add_2126);
constraint int_lin_eq([1,1,-1],[total_2144,grouptotal_1673,Add_2146],0):: defines_var(Add_2146);
constraint int_lin_eq([1,1,-1],[total_2164,grouptotal_1844,Add_2166],0):: defines_var(Add_2166);
constraint int_lin_eq([1,1,-1],[total_2184,i_2185,Add_2186],0):: defines_var(Add_2186);
constraint int_lin_eq([1,1,-1],[total_2204,i_2205,Add_2206],0):: defines_var(Add_2206);
constraint int_lin_eq([1,1,-1],[total_2224,i_2225,Add_2226],0):: defines_var(Add_2226);
constraint int_lin_eq([1,1,-1],[total_2244,i_2245,Add_2246],0):: defines_var(Add_2246);
constraint int_lin_eq([1,1,-1],[total_2264,i_2265,Add_2266],0):: defines_var(Add_2266);
constraint int_lin_eq([-1,-1],[obj_max,objective],0):: defines_var(objective);
constraint int_lin_eq([1,1,-1],[grouptotal_647,grouptotal_818,Add_658],0):: defines_var(Add_658);
constraint int_lin_eq([1,1,-1],[grouptotal_674,grouptotal_989,Add_685],0):: defines_var(Add_685);
constraint int_lin_eq([1,1,-1],[grouptotal_701,grouptotal_1160,Add_712],0):: defines_var(Add_712);
constraint int_lin_eq([1,1,-1],[grouptotal_728,grouptotal_1331,Add_739],0):: defines_var(Add_739);
constraint int_lin_eq([1,1,-1],[grouptotal_755,grouptotal_1502,Add_766],0):: defines_var(Add_766);
constraint int_le_reif(20,grouptotal_781,Greater_783):: defines_var(Greater_783);
constraint int_lin_eq([1,1,-1],[grouptotal_818,grouptotal_989,Add_829],0):: defines_var(Add_829);
constraint int_lin_eq([1,1,-1],[grouptotal_845,grouptotal_1160,Add_856],0):: defines_var(Add_856);
constraint int_lin_eq([1,1,-1],[grouptotal_872,grouptotal_1331,Add_883],0):: defines_var(Add_883);
constraint int_lin_eq([1,1,-1],[grouptotal_899,grouptotal_1502,Add_910],0):: defines_var(Add_910);
constraint int_lin_eq([1,1,-1],[grouptotal_926,grouptotal_1673,Add_937],0):: defines_var(Add_937);
constraint int_le_reif(20,grouptotal_952,Greater_954):: defines_var(Greater_954);
constraint int_lin_eq([1,1,-1],[grouptotal_989,grouptotal_1160,Add_1000],0):: defines_var(Add_1000);
constraint int_lin_eq([1,1,-1],[grouptotal_1016,grouptotal_1331,Add_1027],0):: defines_var(Add_1027);
constraint int_lin_eq([1,1,-1],[grouptotal_1043,grouptotal_1502,Add_1054],0):: defines_var(Add_1054);
constraint int_lin_eq([1,1,-1],[grouptotal_1070,grouptotal_1673,Add_1081],0):: defines_var(Add_1081);
constraint int_lin_eq([1,1,-1],[grouptotal_1097,grouptotal_1844,Add_1108],0):: defines_var(Add_1108);
constraint int_le_reif(20,grouptotal_1123,Greater_1125):: defines_var(Greater_1125);
constraint int_lin_eq([1,1,-1],[grouptotal_1160,grouptotal_1331,Add_1171],0):: defines_var(Add_1171);
constraint int_lin_eq([1,1,-1],[grouptotal_1187,grouptotal_1502,Add_1198],0):: defines_var(Add_1198);
constraint int_lin_eq([1,1,-1],[grouptotal_1214,grouptotal_1673,Add_1225],0):: defines_var(Add_1225);
constraint int_lin_eq([1,1,-1],[grouptotal_1241,grouptotal_1844,Add_1252],0):: defines_var(Add_1252);
constraint int_lin_eq([1,1,-1],[grouptotal_1268,i_2185,Add_1279],0):: defines_var(Add_1279);
constraint int_le_reif(20,grouptotal_1294,Greater_1296):: defines_var(Greater_1296);
constraint int_lin_eq([1,1,-1],[grouptotal_1331,grouptotal_1502,Add_1342],0):: defines_var(Add_1342);
constraint int_lin_eq([1,1,-1],[grouptotal_1358,grouptotal_1673,Add_1369],0):: defines_var(Add_1369);
constraint int_lin_eq([1,1,-1],[grouptotal_1385,grouptotal_1844,Add_1396],0):: defines_var(Add_1396);
constraint int_lin_eq([1,1,-1],[grouptotal_1412,i_2185,Add_1423],0):: defines_var(Add_1423);
constraint int_lin_eq([1,1,-1],[grouptotal_1439,i_2205,Add_1450],0):: defines_var(Add_1450);
constraint int_le_reif(20,grouptotal_1465,Greater_1467):: defines_var(Greater_1467);
constraint int_lin_eq([1,1,-1],[grouptotal_1502,grouptotal_1673,Add_1513],0):: defines_var(Add_1513);
constraint int_lin_eq([1,1,-1],[grouptotal_1529,grouptotal_1844,Add_1540],0):: defines_var(Add_1540);
constraint int_lin_eq([1,1,-1],[grouptotal_1556,i_2185,Add_1567],0):: defines_var(Add_1567);
constraint int_lin_eq([1,1,-1],[grouptotal_1583,i_2205,Add_1594],0):: defines_var(Add_1594);
constraint int_lin_eq([1,1,-1],[grouptotal_1610,i_2225,Add_1621],0):: defines_var(Add_1621);
constraint int_le_reif(20,grouptotal_1636,Greater_1638):: defines_var(Greater_1638);
constraint int_lin_eq([1,1,-1],[grouptotal_1673,grouptotal_1844,Add_1684],0):: defines_var(Add_1684);
constraint int_lin_eq([1,1,-1],[grouptotal_1700,i_2185,Add_1711],0):: defines_var(Add_1711);
constraint int_lin_eq([1,1,-1],[grouptotal_1727,i_2205,Add_1738],0):: defines_var(Add_1738);
constraint int_lin_eq([1,1,-1],[grouptotal_1754,i_2225,Add_1765],0):: defines_var(Add_1765);
constraint int_lin_eq([1,1,-1],[grouptotal_1781,i_2245,Add_1792],0):: defines_var(Add_1792);
constraint int_le_reif(20,grouptotal_1807,Greater_1809):: defines_var(Greater_1809);
constraint int_lin_eq([1,1,-1],[grouptotal_1844,i_2185,Add_1855],0):: defines_var(Add_1855);
constraint int_lin_eq([1,1,-1],[grouptotal_1871,i_2205,Add_1882],0):: defines_var(Add_1882);
constraint int_lin_eq([1,1,-1],[grouptotal_1898,i_2225,Add_1909],0):: defines_var(Add_1909);
constraint int_lin_eq([1,1,-1],[grouptotal_1925,i_2245,Add_1936],0):: defines_var(Add_1936);
constraint int_lin_eq([1,1,-1],[grouptotal_1952,i_2265,Add_1963],0):: defines_var(Add_1963);
constraint int_le_reif(20,grouptotal_1978,Greater_1980):: defines_var(Greater_1980);
constraint int_ne_reif(X_INTRODUCED_4_,1,X_INTRODUCED_13_):: defines_var(X_INTRODUCED_13_);
constraint int_ne_reif(X_INTRODUCED_6_,3,X_INTRODUCED_15_):: defines_var(X_INTRODUCED_15_);
constraint int_ne_reif(X_INTRODUCED_8_,5,X_INTRODUCED_17_):: defines_var(X_INTRODUCED_17_);
constraint int_ne_reif(X_INTRODUCED_10_,7,X_INTRODUCED_19_):: defines_var(X_INTRODUCED_19_);
constraint int_ne_reif(X_INTRODUCED_5_,9,X_INTRODUCED_21_):: defines_var(X_INTRODUCED_21_);
constraint int_ne_reif(X_INTRODUCED_9_,4,X_INTRODUCED_23_):: defines_var(X_INTRODUCED_23_);
constraint int_ne_reif(X_INTRODUCED_7_,8,X_INTRODUCED_25_):: defines_var(X_INTRODUCED_25_);
constraint int_ne_reif(X_INTRODUCED_3_,6,X_INTRODUCED_27_):: defines_var(X_INTRODUCED_27_);
solve :: seq_search([int_search(X_INTRODUCED_30_,input_order,indomain_min,complete),int_search(prev,first_fail,indomain_min,complete),bool_search([Greater_783,Greater_954,Greater_1125,Greater_1296,Greater_1467,Greater_1638,Greater_1809,Greater_1980],input_order,indomain_max,complete),int_search(X_INTRODUCED_29_,first_fail,indomain_min,complete)]) minimize objective;
